4 
5  19 39 57 
6  12 25 40 55 
7  10 25 40 55 
8  10 25 40 55 
9  11 25 40 55 
10  10 25 39 54 
11  09 24 39 54 
12  09 24 39 54 
13  09 24 39 54 
14  09 24 39 54 
15  09 24 39 54 
16  09 24 39 54 
17  09 24 39 54 
18  09 24 40 55 
19  10 25 40 55 
20  10 25 40 55 
21  13 28 40 55 
22  10 25 44 59 
23  14 
0 
